50
21279

889 492
364 780
516 228
585 257
24 94
907 311
244 826
505 98
748 742
231 80
576 395
906 696
434 660
525 850
664 346
614 6
760 761
487 372
417 83
794 738
703 17
309 44
801 125
740 596
35 651
37 877
471 79
884 733
999 293
686 507
6 175
114 142
262 894
89 802
972 230
446 831
45 459
891 985
388 136
987 511
375 558
415 758
988 360
93 515
226 85
217 631
823 550
417 588
850 960
549 574
